W=7;
H=7;

MAX_TIME=26;
MAX_TRACKS=15;

TARGET=(6,7);

TRAINS=[(2,7,LEFT),(6,1,RIGHT),(2,1,RIGHT)];
DECOYS=[];

INIT_POS=[
(2,1,STRAIGHT_RL),
(2,2,STRAIGHT_RL),
(2,6,STRAIGHT_RL),
(2,7,STRAIGHT_RL),
(3,3,CORNER_TL),
(3,5,CORNER_TR),
(4,2,STRAIGHT_TD),
(4,4,STRAIGHT_TD),
(4,6,STRAIGHT_TD),
(5,3,CORNER_DL),
(5,5,CORNER_DR),
(6,1,STRAIGHT_RL),
(6,2,STRAIGHT_RL),
(6,4,STRAIGHT_TD),
(6,6,STRAIGHT_RL),
(6,7,STRAIGHT_RL),
];
TUNNEL_PAIRS=[];

GATES=[];
ACTIVATIONS=[];

DSWITCHES=[];

STATIONS=[];
